
Gurobi 7.5.2 (linux64) logging started Sat Jun 23 16:25:59 2018

Changed value of parameter LogFile to result/ilp/simNo_1-n_100-m_40-s_4-minVAF_0.05-cov_2000-k_1-fn_0.25-fp_0.0001-na_0.15.ILP.gurobiSolverLog
   Prev: gurobi.log  Default: 
Changed value of parameter TimeLimit to 86400.0
   Prev: 1e+100  Min: 0.0  Max: 1e+100  Default: 1e+100
Optimize a model with 1265601 rows, 330440 columns and 3489120 nonzeros
Variable types: 0 continuous, 330440 integer (330440 binary)
Coefficient statistics:
  Matrix range     [2e-03, 3e+00]
  Objective range  [1e+00, 2e+01]
  Bounds range     [1e+00, 1e+00]
  RHS range        [2e-01, 2e+00]
Found heuristic solution: objective -14625.93592
Presolve removed 326276 rows and 212438 columns (presolve time = 6s) ...
Presolve removed 326992 rows and 212438 columns (presolve time = 10s) ...
Presolve removed 327842 rows and 212438 columns (presolve time = 15s) ...
Presolve removed 327842 rows and 212438 columns (presolve time = 20s) ...
Presolve removed 327842 rows and 212438 columns (presolve time = 25s) ...
Presolve removed 327842 rows and 212438 columns (presolve time = 33s) ...
Presolve removed 327842 rows and 212438 columns (presolve time = 35s) ...
Presolve removed 327842 rows and 212438 columns
Presolve time: 35.34s
Presolved: 937759 rows, 118002 columns, 2599749 nonzeros
Variable types: 0 continuous, 118002 integer (118002 binary)
Presolved: 118002 rows, 1055761 columns, 2717751 nonzeros

Presolve removed 118002 rows and 1055761 columns

Root simplex log...

Iteration    Objective       Primal Inf.    Dual Inf.      Time
       0    2.0164516e+01   0.000000e+00   9.805400e+04     46s
   13966   -2.3384396e+02   0.000000e+00   3.496062e+05     50s
   26062   -2.8136625e+02   0.000000e+00   3.275309e+05     55s
   36430   -3.0804896e+02   0.000000e+00   1.083112e+07     60s
   44494   -3.2400657e+02   0.000000e+00   3.697949e+05     66s
   52558   -3.4127479e+02   0.000000e+00   2.195804e+05     70s
   60622   -3.5921375e+02   0.000000e+00   2.388475e+06     75s
   69838   -3.7906417e+02   0.000000e+00   2.297881e+05     80s
   77902   -3.9724050e+02   0.000000e+00   9.861045e+04     85s
   84814   -4.0995912e+02   0.000000e+00   1.414953e+05     90s
   91150   -4.1578820e+02   0.000000e+00   1.318890e+06     95s
   97486   -4.2137273e+02   0.000000e+00   1.184740e+05    100s
  104398   -4.2959007e+02   0.000000e+00   1.870301e+05    105s
  111886   -4.4089782e+02   0.000000e+00   7.111560e+05    110s
  118798   -4.4671304e+02   0.000000e+00   5.068026e+05    115s
  125713   -4.5541502e+02   0.000000e+00   0.000000e+00    120s
  125713   -4.5541502e+02   0.000000e+00   0.000000e+00    123s

Root relaxation: objective -4.554150e+02, 125713 iterations, 84.05 seconds
Total elapsed time = 189.66s
Total elapsed time = 236.04s

    Nodes    |    Current Node    |     Objective Bounds      |     Work
 Expl Unexpl |  Obj  Depth IntInf | Incumbent    BestBd   Gap | It/Node Time

     0     0 -455.41502    0 1507 -14625.936 -455.41502  96.9%     -  273s
H    0     0                    -588.8991566 -455.41502  22.7%     -  352s
     0     0 -462.26714    0 1464 -588.89916 -462.26714  21.5%     -  681s
H    0     0                    -585.0669815 -462.26714  21.0%     -  737s
     0     0 -462.38836    0 1459 -585.06698 -462.38836  21.0%     -  792s
     0     0 -464.02258    0 1454 -585.06698 -464.02258  20.7%     -  867s
     0     0 -464.24489    0 1452 -585.06698 -464.24489  20.7%     -  952s
     0     0 -464.48928    0 1457 -585.06698 -464.48928  20.6%     -  969s
     0     0 -464.54626    0 1457 -585.06698 -464.54626  20.6%     -  981s
     0     0 -464.67874    0 1455 -585.06698 -464.67874  20.6%     - 1002s
     0     0 -464.68098    0 1455 -585.06698 -464.68098  20.6%     - 1011s
     0     0 -464.69454    0 1456 -585.06698 -464.69454  20.6%     - 1021s
     0     0 -464.70904    0 1475 -585.06698 -464.70904  20.6%     - 1033s
     0     0 -464.71063    0 1473 -585.06698 -464.71063  20.6%     - 1046s
     0     0 -466.00782    0 1564 -585.06698 -466.00782  20.3%     - 1077s
     0     0 -466.01078    0 1547 -585.06698 -466.01078  20.3%     - 1321s
     0     0 -466.01155    0 1545 -585.06698 -466.01155  20.3%     - 1334s
     0     0 -467.84744    0 1461 -585.06698 -467.84744  20.0%     - 1383s
     0     0 -468.06584    0 1572 -585.06698 -468.06584  20.0%     - 1457s
     0     0 -468.15690    0 1577 -585.06698 -468.15690  20.0%     - 1473s
     0     0 -468.19751    0 1574 -585.06698 -468.19751  20.0%     - 1491s
     0     0 -470.21972    0 1520 -585.06698 -470.21972  19.6%     - 1572s
     0     0 -470.49606    0 1643 -585.06698 -470.49606  19.6%     - 1650s
     0     0 -470.49723    0 1630 -585.06698 -470.49723  19.6%     - 1667s
     0     0 -471.43884    0 1515 -585.06698 -471.43884  19.4%     - 1703s
     0     0 -471.43884    0 1518 -585.06698 -471.43884  19.4%     - 1758s
     0     0 -472.24517    0 1455 -585.06698 -472.24517  19.3%     - 1797s
     0     0 -472.28037    0 1450 -585.06698 -472.28037  19.3%     - 1853s
     0     0 -472.30862    0 1453 -585.06698 -472.30862  19.3%     - 1869s
     0     0 -472.30960    0 1454 -585.06698 -472.30960  19.3%     - 1881s
     0     0 -473.70965    0 1653 -585.06698 -473.70965  19.0%     - 1957s
     0     0 -473.75490    0 1606 -585.06698 -473.75490  19.0%     - 2290s
     0     0 -473.76568    0 1662 -585.06698 -473.76568  19.0%     - 2304s
     0     0 -473.76568    0 1662 -585.06698 -473.76568  19.0%     - 2316s
     0     0 -475.16149    0 1631 -585.06698 -475.16149  18.8%     - 2389s
     0     0 -475.40406    0 1584 -585.06698 -475.40406  18.7%     - 2764s
     0     0 -475.42293    0 1520 -585.06698 -475.42293  18.7%     - 2790s
     0     0 -475.42560    0 1578 -585.06698 -475.42560  18.7%     - 2803s
     0     0 -475.42808    0 1367 -585.06698 -475.42808  18.7%     - 2816s
     0     0 -475.63119    0 1640 -585.06698 -475.63119  18.7%     - 2850s
     0     0 -476.26294    0 1542 -585.06698 -476.26294  18.6%     - 3271s
     0     0 -476.31457    0 1604 -585.06698 -476.31457  18.6%     - 3291s
     0     0 -476.42637    0 1604 -585.06698 -476.42637  18.6%     - 3317s
     0     0 -476.44068    0 1545 -585.06698 -476.44068  18.6%     - 3333s
     0     0 -476.44068    0 1545 -585.06698 -476.44068  18.6%     - 3342s
     0     0 -477.36460    0 1682 -585.06698 -477.36460  18.4%     - 3411s
     0     0 -477.85744    0 1740 -585.06698 -477.85744  18.3%     - 3752s
     0     0 -477.88657    0 1747 -585.06698 -477.88657  18.3%     - 3771s
     0     0 -477.90009    0 1745 -585.06698 -477.90009  18.3%     - 3793s
     0     0 -477.90134    0 1745 -585.06698 -477.90134  18.3%     - 3806s
     0     0 -479.20463    0 1746 -585.06698 -479.20463  18.1%     - 3896s
     0     0 -479.96568    0 1703 -585.06698 -479.96568  18.0%     - 4396s
     0     0 -479.97999    0 1693 -585.06698 -479.97999  18.0%     - 4418s
     0     0 -479.97999    0 1698 -585.06698 -479.97999  18.0%     - 4429s
     0     0 -480.58652    0 1563 -585.06698 -480.58652  17.9%     - 4484s
     0     0 -480.78178    0 1606 -585.06698 -480.78178  17.8%     - 4706s
     0     0 -481.00475    0 1680 -585.06698 -481.00475  17.8%     - 4748s
     0     0 -481.05128    0 1680 -585.06698 -481.05128  17.8%     - 4770s
     0     0 -481.06153    0 1687 -585.06698 -481.06153  17.8%     - 4787s
     0     0 -481.07354    0 1685 -585.06698 -481.07354  17.8%     - 4805s
     0     0 -481.07380    0 1687 -585.06698 -481.07380  17.8%     - 4817s
     0     0 -482.90988    0 1679 -585.06698 -482.90988  17.5%     - 4910s
     0     0 -483.36308    0 1681 -585.06698 -483.36308  17.4%     - 5267s
     0     0 -483.59028    0 1681 -585.06698 -483.59028  17.3%     - 5305s
     0     0 -483.62353    0 1684 -585.06698 -483.62353  17.3%     - 5326s
     0     0 -483.64973    0 1691 -585.06698 -483.64973  17.3%     - 5342s
     0     0 -483.65383    0 1691 -585.06698 -483.65383  17.3%     - 5360s
     0     0 -483.65383    0 1692 -585.06698 -483.65383  17.3%     - 5372s
     0     0 -484.35379    0 1694 -585.06698 -484.35379  17.2%     - 5437s
     0     0 -484.80349    0 1679 -585.06698 -484.80349  17.1%     - 5969s
     0     0 -484.87313    0 1680 -585.06698 -484.87313  17.1%     - 5991s
     0     0 -484.90396    0 1673 -585.06698 -484.90396  17.1%     - 6013s
     0     0 -484.93097    0 1658 -585.06698 -484.93097  17.1%     - 6031s
     0     0 -484.93214    0 1685 -585.06698 -484.93214  17.1%     - 6042s
     0     0 -486.07696    0 1674 -585.06698 -486.07696  16.9%     - 6120s
     0     0 -486.27658    0 1690 -585.06698 -486.27658  16.9%     - 6465s
     0     0 -486.31473    0 1680 -585.06698 -486.31473  16.9%     - 6483s
     0     0 -486.44667    0 1685 -585.06698 -486.44667  16.9%     - 6513s
     0     0 -486.44831    0 1687 -585.06698 -486.44831  16.9%     - 6524s
     0     0 -487.43308    0 1675 -585.06698 -487.43308  16.7%     - 6596s
     0     0 -487.46822    0 1684 -585.06698 -487.46822  16.7%     - 6848s
     0     0 -487.73942    0 1676 -585.06698 -487.73942  16.6%     - 6876s
     0     0 -487.85520    0 1707 -585.06698 -487.85520  16.6%     - 6904s
     0     0 -487.87735    0 1712 -585.06698 -487.87735  16.6%     - 6922s
     0     0 -487.88990    0 1692 -585.06698 -487.88990  16.6%     - 6940s
     0     0 -487.89013    0 1698 -585.06698 -487.89013  16.6%     - 6952s
     0     0 -489.54263    0 1612 -585.06698 -489.54263  16.3%     - 7043s
     0     0 -489.68222    0 1667 -585.06698 -489.68222  16.3%     - 7433s
     0     0 -489.76381    0 1682 -585.06698 -489.76381  16.3%     - 7451s
     0     0 -489.83349    0 1687 -585.06698 -489.83349  16.3%     - 7478s
     0     0 -489.83444    0 1690 -585.06698 -489.83444  16.3%     - 7489s
     0     0 -491.18897    0 1669 -585.06698 -491.18897  16.0%     - 7557s
     0     0 -491.25666    0 1661 -585.06698 -491.25666  16.0%     - 7864s
     0     0 -491.28774    0 1678 -585.06698 -491.28774  16.0%     - 7886s
     0     0 -491.28807    0 1667 -585.06698 -491.28807  16.0%     - 7902s
     0     0 -491.64241    0 1684 -585.06698 -491.64241  16.0%     - 7954s
     0     0 -491.76531    0 1749 -585.06698 -491.76531  15.9%     - 8407s
     0     0 -491.84609    0 1698 -585.06698 -491.84609  15.9%     - 8434s
     0     0 -491.84779    0 1745 -585.06698 -491.84779  15.9%     - 8449s
     0     0 -493.17549    0 1760 -585.06698 -493.17549  15.7%     - 8640s
     0     0 -493.44638    0 1758 -585.06698 -493.44638  15.7%     - 8938s
     0     0 -493.49717    0 1775 -585.06698 -493.49717  15.7%     - 8961s
     0     0 -493.56298    0 1767 -585.06698 -493.56298  15.6%     - 8989s
     0     0 -493.57850    0 1764 -585.06698 -493.57850  15.6%     - 9008s
     0     0 -493.58217    0 1767 -585.06698 -493.58217  15.6%     - 9023s
     0     0 -493.73217    0 1753 -585.06698 -493.73217  15.6%     - 9064s
     0     0 -493.85473    0 1770 -585.06698 -493.85473  15.6%     - 9426s
     0     0 -493.91094    0 1771 -585.06698 -493.91094  15.6%     - 9454s
     0     0 -493.91377    0 1772 -585.06698 -493.91377  15.6%     - 9473s
     0     0 -495.32635    0 1749 -585.06698 -495.32635  15.3%     - 9609s
     0     0 -495.82382    0 1757 -585.06698 -495.82382  15.3%     - 10071s
     0     0 -496.01256    0 1766 -585.06698 -496.01256  15.2%     - 10114s
     0     0 -496.05985    0 1771 -585.06698 -496.05985  15.2%     - 10139s
     0     0 -496.08088    0 1773 -585.06698 -496.08088  15.2%     - 10162s
     0     0 -496.09631    0 1776 -585.06698 -496.09631  15.2%     - 10183s
     0     0 -496.09761    0 1775 -585.06698 -496.09761  15.2%     - 10192s
     0     0 -496.98969    0 1753 -585.06698 -496.98969  15.1%     - 10259s
     0     0 -497.25753    0 1761 -585.06698 -497.25753  15.0%     - 10652s
     0     0 -497.27434    0 1771 -585.06698 -497.27434  15.0%     - 10668s
     0     0 -497.28153    0 1772 -585.06698 -497.28153  15.0%     - 10682s
     0     0 -497.28732    0 1773 -585.06698 -497.28732  15.0%     - 10699s
     0     0 -497.28989    0 1777 -585.06698 -497.28989  15.0%     - 10713s
     0     0 -499.03921    0 1769 -585.06698 -499.03921  14.7%     - 10838s
     0     0 -499.29984    0 1841 -585.06698 -499.29984  14.7%     - 11116s
     0     0 -499.32669    0 1845 -585.06698 -499.32669  14.7%     - 11134s
     0     0 -499.35669    0 1839 -585.06698 -499.35669  14.6%     - 11150s
     0     0 -499.35693    0 1852 -585.06698 -499.35693  14.6%     - 11163s
     0     0 -500.45386    0 1737 -585.06698 -500.45386  14.5%     - 11233s
     0     0 -500.76877    0 1762 -585.06698 -500.76877  14.4%     - 11556s
     0     0 -500.80533    0 1781 -585.06698 -500.80533  14.4%     - 11573s
     0     0 -500.84785    0 1783 -585.06698 -500.84785  14.4%     - 11595s
     0     0 -500.84827    0 1784 -585.06698 -500.84827  14.4%     - 11606s
     0     0 -501.98582    0 1769 -585.06698 -501.98582  14.2%     - 11669s
     0     0 -502.15438    0 1776 -585.06698 -502.15438  14.2%     - 11942s
     0     0 -502.18828    0 1775 -585.06698 -502.18828  14.2%     - 11960s
     0     0 -502.21622    0 1785 -585.06698 -502.21622  14.2%     - 11973s
     0     0 -502.21727    0 1789 -585.06698 -502.21727  14.2%     - 11983s
     0     0 -503.35848    0 1781 -585.06698 -503.35848  14.0%     - 12185s
     0     0 -503.70422    0 1783 -585.06698 -503.70422  13.9%     - 12630s
     0     0 -503.76197    0 1780 -585.06698 -503.76197  13.9%     - 12657s
     0     0 -503.76781    0 1783 -585.06698 -503.76781  13.9%     - 12672s
     0     0 -503.77178    0 1780 -585.06698 -503.77178  13.9%     - 12686s
     0     0 -504.84746    0 1731 -585.06698 -504.84746  13.7%     - 12824s
     0     0 -505.11514    0 1782 -585.06698 -505.11514  13.7%     - 13135s
     0     0 -505.18142    0 1796 -585.06698 -505.18142  13.7%     - 13164s
     0     0 -505.18514    0 1789 -585.06698 -505.18514  13.7%     - 13178s
     0     0 -505.59390    0 1767 -585.06698 -505.59390  13.6%     - 13281s
     0     0 -505.93072    0 1771 -585.06698 -505.93072  13.5%     - 13755s
     0     0 -506.03211    0 1778 -585.06698 -506.03211  13.5%     - 13782s
     0     0 -506.04883    0 1779 -585.06698 -506.04883  13.5%     - 13799s
     0     0 -506.05344    0 1781 -585.06698 -506.05344  13.5%     - 13811s
     0     0 -506.61804    0 1779 -585.06698 -506.61804  13.4%     - 13865s
     0     0 -506.76065    0 1779 -585.06698 -506.76065  13.4%     - 14085s
     0     0 -506.78991    0 1772 -585.06698 -506.78991  13.4%     - 14100s
     0     0 -506.80774    0 1779 -585.06698 -506.80774  13.4%     - 14117s
     0     0 -506.81334    0 1789 -585.06698 -506.81334  13.4%     - 14129s
     0     0 -506.81850    0 1791 -585.06698 -506.81850  13.4%     - 14145s
     0     0 -507.69228    0 1738 -585.06698 -507.69228  13.2%     - 14370s
     0     0 -507.88093    0 1770 -585.06698 -507.88093  13.2%     - 14670s
     0     0 -508.12630    0 1777 -585.06698 -508.12630  13.2%     - 14856s
     0     0 -508.17818    0 1769 -585.06698 -508.17818  13.1%     - 14895s
     0     0 -508.22296    0 1787 -585.06698 -508.22296  13.1%     - 14930s
     0     0 -508.23770    0 1781 -585.06698 -508.23770  13.1%     - 14950s
     0     0 -508.23834    0 1778 -585.06698 -508.23834  13.1%     - 14962s
     0     0 -508.95789    0 1771 -585.06698 -508.95789  13.0%     - 15067s
     0     0 -508.99187    0 1769 -585.06698 -508.99187  13.0%     - 15286s
     0     0 -508.99248    0 1775 -585.06698 -508.99248  13.0%     - 15300s
     0     0 -509.12306    0 1765 -585.06698 -509.12306  13.0%     - 15349s
     0     0 -509.20591    0 1776 -585.06698 -509.20591  13.0%     - 15764s
     0     0 -509.27296    0 1775 -585.06698 -509.27296  13.0%     - 15813s
     0     0 -509.28024    0 1781 -585.06698 -509.28024  13.0%     - 15829s
     0     0 -509.33414    0 1784 -585.06698 -509.33414  12.9%     - 15852s
     0     0 -509.36926    0 1769 -585.06698 -509.36926  12.9%     - 15868s
     0     0 -509.39633    0 1781 -585.06698 -509.39633  12.9%     - 15885s
     0     0 -509.39633    0 1782 -585.06698 -509.39633  12.9%     - 15896s
     0     0 -510.10264    0 1770 -585.06698 -510.10264  12.8%     - 16024s
     0     0 -510.53305    0 1780 -585.06698 -510.53305  12.7%     - 16509s
     0     0 -510.56515    0 1784 -585.06698 -510.56515  12.7%     - 16538s
     0     0 -510.56704    0 1787 -585.06698 -510.56704  12.7%     - 16553s
     0     0 -511.06249    0 1747 -585.06698 -511.06249  12.6%     - 16787s
     0     0 -511.31180    0 1781 -585.06698 -511.31180  12.6%     - 17086s
     0     0 -511.37286    0 1769 -585.06698 -511.37286  12.6%     - 17111s
     0     0 -511.39292    0 1792 -585.06698 -511.39292  12.6%     - 17126s
     0     0 -511.40793    0 1793 -585.06698 -511.40793  12.6%     - 17144s
     0     0 -511.41263    0 1793 -585.06698 -511.41263  12.6%     - 17155s
     0     0 -511.90242    0 1781 -585.06698 -511.90242  12.5%     - 17278s
     0     0 -511.99953    0 1782 -585.06698 -511.99953  12.5%     - 17496s
     0     0 -512.07973    0 1790 -585.06698 -512.07973  12.5%     - 17521s
     0     0 -512.09002    0 1789 -585.06698 -512.09002  12.5%     - 17536s
     0     0 -512.09536    0 1798 -585.06698 -512.09536  12.5%     - 17545s
     0     0 -512.47025    0 1782 -585.06698 -512.47025  12.4%     - 17582s
     0     0 -512.62236    0 1773 -585.06698 -512.62236  12.4%     - 17944s
     0     0 -512.63632    0 1781 -585.06698 -512.63632  12.4%     - 17961s
     0     0 -512.68516    0 1784 -585.06698 -512.68516  12.4%     - 17978s
     0     0 -512.69412    0 1788 -585.06698 -512.69412  12.4%     - 17991s
     0     0 -512.69805    0 1793 -585.06698 -512.69805  12.4%     - 18006s
     0     0 -513.57356    0 1784 -585.06698 -513.57356  12.2%     - 18096s
     0     0 -513.91800    0 1785 -585.06698 -513.91800  12.2%     - 18314s
     0     0 -513.96743    0 1795 -585.06698 -513.96743  12.2%     - 18334s
     0     0 -513.97580    0 1801 -585.06698 -513.97580  12.2%     - 18351s
     0     0 -513.97786    0 1798 -585.06698 -513.97786  12.2%     - 18364s
     0     0 -514.31178    0 1779 -585.06698 -514.31178  12.1%     - 18419s
     0     0 -514.45100    0 1775 -585.06698 -514.45100  12.1%     - 18722s
     0     0 -514.46547    0 1797 -585.06698 -514.46547  12.1%     - 18738s
     0     0 -514.47010    0 1802 -585.06698 -514.47010  12.1%     - 18751s
     0     0 -515.17625    0 1787 -585.06698 -515.17625  11.9%     - 18844s
     0     0 -515.42825    0 1794 -585.06698 -515.42825  11.9%     - 19126s
     0     0 -515.48619    0 1801 -585.06698 -515.48619  11.9%     - 19146s
     0     0 -515.51431    0 1796 -585.06698 -515.51431  11.9%     - 19164s
     0     0 -515.52769    0 1799 -585.06698 -515.52769  11.9%     - 19179s
     0     0 -515.53546    0 1804 -585.06698 -515.53546  11.9%     - 19191s
     0     0 -515.54043    0 1811 -585.06698 -515.54043  11.9%     - 19203s
     0     0 -516.35411    0 1788 -585.06698 -516.35411  11.7%     - 19323s
     0     0 -516.74937    0 1794 -585.06698 -516.74937  11.7%     - 19515s
     0     0 -516.79709    0 1739 -585.06698 -516.79709  11.7%     - 19542s
     0     0 -516.81683    0 1793 -585.06698 -516.81683  11.7%     - 19562s
     0     0 -516.81772    0 1797 -585.06698 -516.81772  11.7%     - 19573s
     0     0 -517.11815    0 1790 -585.06698 -517.11815  11.6%     - 19631s
     0     0 -517.49093    0 1808 -585.06698 -517.49093  11.6%     - 19932s
     0     0 -517.62105    0 1800 -585.06698 -517.62105  11.5%     - 19956s
     0     0 -517.64589    0 1819 -585.06698 -517.64589  11.5%     - 19975s
     0     0 -517.67459    0 1816 -585.06698 -517.67459  11.5%     - 19991s
     0     0 -517.70277    0 1816 -585.06698 -517.70277  11.5%     - 20012s
     0     0 -517.70692    0 1826 -585.06698 -517.70692  11.5%     - 20026s
     0     0 -518.10233    0 1797 -585.06698 -518.10233  11.4%     - 20103s
     0     0 -518.16875    0 1799 -585.06698 -518.16875  11.4%     - 20303s
     0     0 -518.22490    0 1813 -585.06698 -518.22490  11.4%     - 20320s
     0     0 -518.45354    0 1788 -585.06698 -518.45354  11.4%     - 20355s
     0     0 -518.53866    0 1792 -585.06698 -518.53866  11.4%     - 20378s
     0     0 -518.54899    0 1801 -585.06698 -518.54899  11.4%     - 20395s
     0     0 -518.55130    0 1806 -585.06698 -518.55130  11.4%     - 20407s
     0     0 -519.14121    0 1784 -585.06698 -519.14121  11.3%     - 20484s
     0     0 -519.42643    0 1796 -585.06698 -519.42643  11.2%     - 20893s
     0     0 -519.46264    0 1816 -585.06698 -519.46264  11.2%     - 20915s
     0     0 -519.52586    0 1818 -585.06698 -519.52586  11.2%     - 20938s
     0     0 -519.53680    0 1819 -585.06698 -519.53680  11.2%     - 20954s
     0     0 -519.55665    0 1819 -585.06698 -519.55665  11.2%     - 20970s
     0     0 -519.56524    0 1817 -585.06698 -519.56524  11.2%     - 20983s
     0     0 -519.57062    0 1822 -585.06698 -519.57062  11.2%     - 20996s
     0     0 -520.00039    0 1790 -585.06698 -520.00039  11.1%     - 21058s
     0     0 -520.15836    0 1805 -585.06698 -520.15836  11.1%     - 21280s
     0     0 -520.18522    0 1800 -585.06698 -520.18522  11.1%     - 21299s
     0     0 -520.19768    0 1807 -585.06698 -520.19768  11.1%     - 21315s
     0     0 -520.21216    0 1809 -585.06698 -520.21216  11.1%     - 21332s
     0     0 -520.21560    0 1808 -585.06698 -520.21560  11.1%     - 21343s
     0     0 -520.47971    0 1779 -585.06698 -520.47971  11.0%     - 21392s
     0     0 -520.64808    0 1761 -585.06698 -520.64808  11.0%     - 21708s
     0     0 -520.67858    0 1774 -585.06698 -520.67858  11.0%     - 21731s
     0     0 -520.69150    0 1783 -585.06698 -520.69150  11.0%     - 21747s
     0     0 -520.70471    0 1789 -585.06698 -520.70471  11.0%     - 21760s
     0     0 -520.70984    0 1788 -585.06698 -520.70984  11.0%     - 21776s
     0     0 -520.88299    0 1772 -585.06698 -520.88299  11.0%     - 21816s
     0     0 -520.96970    0 1795 -585.06698 -520.96970  11.0%     - 21984s
     0     0 -521.01653    0 1787 -585.06698 -521.01653  10.9%     - 22007s
     0     0 -521.02660    0 1796 -585.06698 -521.02660  10.9%     - 22021s
     0     0 -521.03584    0 1794 -585.06698 -521.03584  10.9%     - 22033s
     0     0 -521.03715    0 1803 -585.06698 -521.03715  10.9%     - 22046s
     0     0 -521.45283    0 1789 -585.06698 -521.45283  10.9%     - 22119s
     0     0 -521.53092    0 1784 -585.06698 -521.53092  10.9%     - 22423s
     0     0 -521.55656    0 1797 -585.06698 -521.55656  10.9%     - 22440s
     0     0 -521.76653    0 1795 -585.06698 -521.76653  10.8%     - 22476s
     0     0 -521.78556    0 1798 -585.06698 -521.78556  10.8%     - 22494s
     0     0 -521.78596    0 1812 -585.06698 -521.78596  10.8%     - 22505s
     0     0 -522.07220    0 1800 -585.06698 -522.07220  10.8%     - 22557s
     0     0 -522.17908    0 1797 -585.06698 -522.17908  10.7%     - 22800s
     0     0 -522.23539    0 1881 -585.06698 -522.23539  10.7%     - 22834s
     0     0 -522.25089    0 1887 -585.06698 -522.25089  10.7%     - 22850s
     0     0 -522.25969    0 1878 -585.06698 -522.25969  10.7%     - 22869s
     0     0 -522.26012    0 1887 -585.06698 -522.26012  10.7%     - 22877s
     0     0 -522.47738    0 1875 -585.06698 -522.47738  10.7%     - 22923s
     0     0 -522.50311    0 1881 -585.06698 -522.50311  10.7%     - 23075s
     0     0 -522.53651    0 1871 -585.06698 -522.53651  10.7%     - 23088s
     0     0 -522.56711    0 1887 -585.06698 -522.56711  10.7%     - 23107s
     0     0 -522.57193    0 1886 -585.06698 -522.57193  10.7%     - 23121s
     0     0 -522.77776    0 1871 -585.06698 -522.77776  10.6%     - 23167s
     0     0 -523.02777    0 1881 -585.06698 -523.02777  10.6%     - 23473s
     0     0 -523.04227    0 1885 -585.06698 -523.04227  10.6%     - 23497s
     0     0 -523.07986    0 1882 -585.06698 -523.07986  10.6%     - 23521s
     0     0 -523.08352    0 1881 -585.06698 -523.08352  10.6%     - 23537s
     0     0 -523.32577    0 1860 -585.06698 -523.32577  10.6%     - 23585s
     0     0 -523.34602    0 1875 -585.06698 -523.34602  10.5%     - 23601s
     0     0 -523.36215    0 1870 -585.06698 -523.36215  10.5%     - 23618s
     0     0 -523.36649    0 1881 -585.06698 -523.36649  10.5%     - 23629s
     0     0 -523.45384    0 1875 -585.06698 -523.45384  10.5%     - 23665s
     0     0 -523.58470    0 1876 -585.06698 -523.58470  10.5%     - 23874s
     0     0 -523.61455    0 1888 -585.06698 -523.61455  10.5%     - 23897s
     0     0 -523.61596    0 1887 -585.06698 -523.61596  10.5%     - 23912s
     0     0 -523.98475    0 1863 -585.06698 -523.98475  10.4%     - 23982s
     0     0 -524.06631    0 1870 -585.06698 -524.06631  10.4%     - 24209s
     0     0 -524.07964    0 1879 -585.06698 -524.07964  10.4%     - 24224s
     0     0 -524.08203    0 1832 -585.06698 -524.08203  10.4%     - 24237s
     0     0 -524.73626    0 1876 -585.06698 -524.73626  10.3%     - 24317s
     0     0 -524.85960    0 1876 -585.06698 -524.85960  10.3%     - 24594s
     0     0 -524.89925    0 1871 -585.06698 -524.89925  10.3%     - 24612s
     0     0 -524.90837    0 1883 -585.06698 -524.90837  10.3%     - 24623s
     0     0 -524.91030    0 1890 -585.06698 -524.91030  10.3%     - 24634s
     0     0 -525.05289    0 1858 -585.06698 -525.05289  10.3%     - 24688s
     0     0 -525.23637    0 1861 -585.06698 -525.23637  10.2%     - 24896s
     0     0 -525.24784    0 1880 -585.06698 -525.24784  10.2%     - 24915s
     0     0 -525.25248    0 1890 -585.06698 -525.25248  10.2%     - 24931s
     0     0 -525.31311    0 1875 -585.06698 -525.31311  10.2%     - 24968s
     0     0 -525.36682    0 1886 -585.06698 -525.36682  10.2%     - 25119s
     0     0 -525.39077    0 1792 -585.06698 -525.39077  10.2%     - 25137s
     0     0 -525.39829    0 1884 -585.06698 -525.39829  10.2%     - 25149s
     0     0 -525.40417    0 1888 -585.06698 -525.40417  10.2%     - 25161s
     0     0 -525.45945    0 1787 -585.06698 -525.45945  10.2%     - 25191s
     0     0 -525.47084    0 1888 -585.06698 -525.47084  10.2%     - 25401s
     0     0 -525.47691    0 1890 -585.06698 -525.47691  10.2%     - 25417s
     0     0 -525.57041    0 1794 -585.06698 -525.57041  10.2%     - 25517s
     0     0 -525.65349    0 1803 -585.06698 -525.65349  10.2%     - 25713s
     0     0 -525.67979    0 1796 -585.06698 -525.67979  10.2%     - 25730s
     0     0 -525.68749    0 1789 -585.06698 -525.68749  10.1%     - 25742s
     0     0 -525.70374    0 1801 -585.06698 -525.70374  10.1%     - 25764s
     0     0 -525.71344    0 1804 -585.06698 -525.71344  10.1%     - 25781s
     0     0 -525.71570    0 1806 -585.06698 -525.71570  10.1%     - 25796s
     0     0 -525.88239    0 1798 -585.06698 -525.88239  10.1%     - 25860s
     0     0 -526.02649    0 1790 -585.06698 -526.02649  10.1%     - 26021s
     0     0 -526.07964    0 1810 -585.06698 -526.07964  10.1%     - 26041s
     0     0 -526.09524    0 1805 -585.06698 -526.09524  10.1%     - 26054s
     0     0 -526.09948    0 1809 -585.06698 -526.09948  10.1%     - 26066s
     0     0 -526.37773    0 1749 -585.06698 -526.37773  10.0%     - 26133s
     0     0 -526.57326    0 1785 -585.06698 -526.57326  10.0%     - 26326s
     0     0 -526.63491    0 1805 -585.06698 -526.63491  10.0%     - 26353s
     0     0 -526.66124    0 1813 -585.06698 -526.66124  10.0%     - 26376s
     0     0 -526.70485    0 1794 -585.06698 -526.70485  10.0%     - 26437s
     0     0 -526.73602    0 1811 -585.06698 -526.73602  10.0%     - 26459s
     0     0 -526.74594    0 1801 -585.06698 -526.74594  10.0%     - 26477s
     0     0 -526.75776    0 1751 -585.06698 -526.75776  10.0%     - 26491s
     0     0 -526.76000    0 1760 -585.06698 -526.76000  10.0%     - 26504s
     0     0 -526.77429    0 1760 -585.06698 -526.77429  10.0%     - 26534s
     0     0 -526.79537    0 1754 -585.06698 -526.79537  10.0%     - 26558s
     0     0 -526.79545    0 1809 -585.06698 -526.79545  10.0%     - 26568s
     0     0 -526.80864    0 1757 -585.06698 -526.80864  10.0%     - 26597s
     0     0 -526.80864    0 1686 -585.06698 -526.80864  10.0%     - 26753s
     0     2 -526.80886    0 1681 -585.06698 -526.80886  10.0%     - 26975s
     1     3 -526.97191    1 1665 -585.06698 -526.80944  10.0%  2995 26994s
     2     4 -527.18550    2 1575 -585.06698 -526.80944  10.0%  2518 27017s
     3     5 -528.05642    3 2201 -585.06698 -526.80944  10.0%  3394 27076s
     4     6 -529.79531    4 1379 -585.06698 -526.80944  10.0%  3359 27125s
     5     7 -530.32944    5 1374 -585.06698 -526.80944  10.0%  2793 27137s
     6     8 -530.96812    6 1372 -585.06698 -526.80944  10.0%  2398 27147s
     7     9 -562.05895    6 1243 -585.06698 -526.80944  10.0%  6995 27554s
     8    10 -531.37528    7 1365 -585.06698 -526.80944  10.0%  6246 27571s
     9    11 -531.88623    8 1336 -585.06698 -526.80944  10.0%  5660 27586s
    10    12 -556.94951    8 1267 -585.06698 -526.80944  10.0%  7558 27851s
    11    13 -534.32689    9 1368 -585.06698 -526.80944  10.0%  7252 27881s
    12    14 -534.44094    9 1329 -585.06698 -526.80944  10.0%  6909 27918s
    13    15 -534.91995   10 1346 -585.06698 -526.80944  10.0%  6427 27929s
    14    16 -565.89103   10 1206 -585.06698 -526.80944  10.0%  7937 28255s
    16    18 -578.02595   11 1171 -585.06698 -526.80944  10.0%  8686 28542s
    17    19 -537.20856   12 1318 -585.06698 -526.80944  10.0%  8228 28558s
    18    20 -538.27302   12 1330 -585.06698 -526.80944  10.0%  7812 28574s
    19    21 -537.84724   13 1316 -585.06698 -526.80944  10.0%  7410 28581s
    20    22 -570.27461   13 1312 -585.06698 -526.80944  10.0%  8013 28791s
    21    23 -538.37947   14 1328 -585.06698 -526.80944  10.0%  7656 28799s
    22    24 -567.00383   14 1178 -585.06698 -526.80944  10.0%  8152 28987s
    23    25 -541.62609   15 1306 -585.06698 -526.80944  10.0%  7823 28998s
    24    26 -542.42444   15 1235 -585.06698 -526.80944  10.0%  7568 29016s
    25    27 -543.70180   16 1229 -585.06698 -526.80944  10.0%  7285 29024s
    26    28 -563.50088   16 1108 -585.06698 -526.80944  10.0%  7330 29108s
    27    29 -546.89520   17 1203 -585.06698 -526.80944  10.0%  7108 29144s
    28    30 -550.40794   17 1092 -585.06698 -526.80944  10.0%  6897 29160s
    30    32 -581.85803   18  904 -585.06698 -526.80944  10.0%  6674 29229s
    31    33 -551.68530   19 1087 -585.06698 -526.80944  10.0%  6466 29232s
    32    32     cutoff   19      -585.06698 -526.80944  10.0%  6686 29344s
    33    33 -552.11109   20 1100 -585.06698 -526.80944  10.0%  6509 29351s
    34    34 -577.87117   20 1049 -585.06698 -526.80944  10.0%  6665 29457s
    35    35 -579.14853   21 1031 -585.06698 -526.80944  10.0%  6480 29462s
    37    37 -580.42589   23  947 -585.06698 -526.80944  10.0%  6137 29467s
    40    38     cutoff   25      -585.06698 -526.80944  10.0%  5681 29471s
    42    38     cutoff   26      -585.06698 -526.80944  10.0%  5418 29475s
    47    43 -584.25797   31  800 -585.06698 -526.80944  10.0%  4848 29481s
    52    40     cutoff   32      -585.06698 -526.80944  10.0%  4385 29485s
    53    41 -528.90604    1 1458 -585.06698 -526.97631  9.93%  4428 29556s
    54    42 -532.96269    2 1486 -585.06698 -526.97631  9.93%  5372 31548s
    55    43 -535.44069    3 1468 -585.06698 -526.97631  9.93%  5377 31650s
    56    44 -536.75072    3 1528 -585.06698 -526.97631  9.93%  6774 35105s
    57    45 -537.70874    4 1590 -585.06698 -526.97631  9.93%  6842 35365s
    58    46 -538.66676    5 1568 -585.06698 -526.97631  9.93%  6935 35594s
    59    47 -564.90423    5 1271 -585.06698 -526.97631  9.93% 12086 46985s
    60    48 -540.87758    6 1601 -585.06698 -526.97631  9.93% 12645 48163s
    61    49 -543.45686    6 1629 -585.06698 -526.97631  9.93% 14030 51162s
    62    50 -544.41488    7 1320 -585.06698 -526.97631  9.93% 13867 51218s

Cutting planes:
  Zero half: 1200

Explored 63 nodes (1625004 simplex iterations) in 86400.95 seconds
Thread count was 1 (of 80 available processors)

Solution count 3: -585.067 -588.899 -14625.9 

Time limit reached
Best objective -5.850669815477e+02, best bound -5.269763069514e+02, gap 9.9289%
